(declare-const delta___cil_tmp3 Int)
(declare-const delta_param0 Int)
(declare-const delta_gl_list.next@pos Int)
(declare-const delta_gl_list.next@width Int)
(declare-const delta_next@width Int)
(declare-const delta___cil_tmp4 Int)
(declare-const delta_param0@pos Int)
(declare-const delta_gl_list.next Int)
(declare-const delta_param0@width Int)
(declare-const delta_next Int)
(declare-const delta_next@pos Int)
(assert (exists
         ((|next@width'?1| Int) (|next@pos'?2| Int) (|__cil_tmp4'?3| Int)
            (|__cil_tmp3'?4| Int) (|next'?5| Int) (store?6 Int) (store?7 Int)
            (store?8 Int) (|param0@width'?9| Int)
            (|gl_list.next@width'?10| Int) (|param0@pos'?11| Int)
            (|gl_list.next@pos'?12| Int) (|param0'?13| Int)
            (|gl_list.next'?14| Int) (tr?15 Int) (type_err?16 Int)
            (type_err?17 Int) (tr?18 Int) (__cil_tmp4?19 Int)
            (__cil_tmp3?20 Int) (next?21 Int) (next@pos?22 Int)
            (next@width?23 Int) (param0@width?24 Int) (param0@pos?25 Int)
            (param0?26 Int) (gl_list.next@width?27 Int)
            (gl_list.next@pos?28 Int) (gl_list.next?29 Int))
         (and (or (<= (+ (- tr?18) tr?15 1) 0) (<= (+ tr?18 (- tr?15) 1) 0))
                (= (+ (- type_err?16) |param0@width'?9|) 0)
                (= (+ |next@width'?1| (- type_err?16)) 0)
                (= (+ (- store?6) |gl_list.next@width'?10|) 0)
                (= (+ (- type_err?17) |param0@pos'?11| 4) 0)
                (= (+ |next@pos'?2| (- type_err?17)) 0)
                (= (+ (- store?7) |gl_list.next@pos'?12|) 0)
                (= (+ |param0'?13| (- tr?18) 4) 0)
                (= (+ |__cil_tmp4'?3| (- tr?15)) 0)
                (= (+ |__cil_tmp3'?4| (- tr?18)) 0)
                (= (+ |next'?5| (- tr?18)) 0)
                (= (+ (- store?8) |gl_list.next'?14|) 0)
                (= delta_gl_list.next (+ |gl_list.next'?14|
                                           (- gl_list.next?29)))
                (= delta_next (+ |next'?5| (- next?21)))
                (= delta___cil_tmp3 (+ |__cil_tmp3'?4| (- __cil_tmp3?20)))
                (= delta___cil_tmp4 (+ |__cil_tmp4'?3| (- __cil_tmp4?19)))
                (= delta_param0 (+ |param0'?13| (- param0?26)))
                (= delta_gl_list.next@pos (+ |gl_list.next@pos'?12|
                                               (- gl_list.next@pos?28)))
                (= delta_next@pos (+ |next@pos'?2| (- next@pos?22)))
                (= delta_param0@pos (+ |param0@pos'?11| (- param0@pos?25)))
                (= delta_gl_list.next@width (+ |gl_list.next@width'?10|
                                                 (- gl_list.next@width?27)))
                (= delta_next@width (+ |next@width'?1| (- next@width?23)))
                (= delta_param0@width (+ |param0@width'?9|
                                           (- param0@width?24))))))
(check-sat)
